p cnf 10 80
1 -3 6 0
6 8 10 0
-2 8 -3 0
1 -8 2 0
6 -3 -4 0
-3 -2 -10 0
-3 -4 6 0
-2 -3 7 0
4 -7 10 0
-2 -7 -4 0
-7 -5 -2 0
-1 10 8 0
5 3 10 0
-7 5 -2 0
1 4 -9 0
-4 10 -3 0
-7 5 -3 0
6 5 3 0
5 6 -4 0
-3 -2 -10 0
-2 10 -8 0
-7 10 5 0
-2 1 4 0
5 8 10 0
10 5 -9 0
-7 -1 -3 0
2 5 -7 0
5 10 6 0
5 -9 -4 0
10 8 -7 0
8 6 1 0
1 6 -9 0
-3 -10 5 0
-4 -2 1 0
5 6 -3 0
1 -3 5 0
1 10 -3 0
8 -2 6 0
-9 -4 1 0
3 -7 -2 0
-7 -2 -3 0
-9 -2 -4 0
8 5 -9 0
-2 6 -1 0
-7 -1 -3 0
-4 -3 10 0
-3 -2 5 0
-7 -3 -9 0
-9 5 -8 0
10 -4 -3 0
-9 7 10 0
-3 -9 6 0
6 -5 -2 0
6 5 10 0
-2 -7 1 0
-2 6 -5 0
7 8 10 0
-2 -9 -3 0
-9 -2 3 0
6 4 -7 0
1 8 5 0
-2 -4 -6 0
-2 -3 6 0
1 5 -6 0
-3 -4 -2 0
1 -2 -7 0
-7 5 2 0
-9 -7 -3 0
-9 -3 1 0
-7 9 8 0
-7 5 -10 0
10 8 7 0
-3 5 -2 0
-3 -7 -4 0
6 10 -7 0
-2 -9 -5 0
6 1 -7 0
-8 -2 -4 0
9 10 -4 0
-7 -5 10 0
%
0